p edge 40 372 20
v 2 5 7
v 2 11 29
v 1 12
v 2 16 30
v 1 25
v 1 36
v 3 10 18 23
v 1 37
v 3 8 27 38
v 1 32
v 4 17 21 31 34
v 2 13 40
v 3 14 15 20
v 1 3
v 1 1
v 3 6 24 35
v 2 4 26
v 2 19 22
v 2 28 33
v 3 2 9 39
e 1 2
e 1 4
e 1 6
e 1 8
e 1 10
e 1 13
e 1 14
e 1 15
e 1 16
e 1 18
e 1 19
e 1 20
e 1 24
e 1 26
e 1 27
e 1 28
e 1 31
e 1 34
e 1 36
e 1 37
e 1 39
e 2 6
e 2 7
e 2 10
e 2 11
e 2 18
e 2 21
e 2 22
e 2 25
e 2 26
e 2 27
e 2 29
e 2 32
e 2 33
e 2 34
e 2 35
e 2 36
e 2 38
e 2 39
e 3 4
e 3 5
e 3 6
e 3 8
e 3 10
e 3 11
e 3 14
e 3 17
e 3 20
e 3 23
e 3 24
e 3 25
e 3 26
e 3 31
e 3 33
e 3 35
e 3 37
e 3 38
e 3 40
e 4 5
e 4 6
e 4 10
e 4 11
e 4 13
e 4 14
e 4 19
e 4 20
e 4 24
e 4 25
e 4 26
e 4 27
e 4 28
e 4 29
e 4 32
e 4 33
e 4 36
e 4 38
e 4 39
e 4 40
e 5 6
e 5 7
e 5 9
e 5 10
e 5 13
e 5 15
e 5 16
e 5 18
e 5 22
e 5 23
e 5 24
e 5 25
e 5 26
e 5 27
e 5 28
e 5 36
e 5 37
e 5 39
e 6 8
e 6 12
e 6 13
e 6 15
e 6 18
e 6 31
e 6 35
e 6 36
e 6 38
e 6 39
e 6 40
e 7 8
e 7 10
e 7 11
e 7 12
e 7 15
e 7 17
e 7 21
e 7 22
e 7 23
e 7 26
e 7 27
e 7 29
e 7 31
e 7 36
e 7 37
e 7 38
e 8 9
e 8 12
e 8 13
e 8 15
e 8 17
e 8 21
e 8 23
e 8 26
e 8 28
e 8 29
e 8 30
e 8 33
e 8 35
e 8 38
e 8 39
e 8 40
e 9 12
e 9 13
e 9 17
e 9 19
e 9 20
e 9 22
e 9 24
e 9 26
e 9 28
e 9 29
e 9 30
e 9 31
e 9 37
e 9 38
e 9 40
e 10 12
e 10 14
e 10 15
e 10 17
e 10 18
e 10 22
e 10 24
e 10 25
e 10 26
e 10 28
e 10 30
e 10 31
e 10 33
e 10 35
e 10 37
e 10 39
e 11 15
e 11 24
e 11 25
e 11 28
e 11 32
e 11 34
e 11 35
e 11 39
e 11 40
e 12 15
e 12 19
e 12 22
e 12 25
e 12 27
e 12 28
e 12 29
e 12 34
e 12 40
e 13 14
e 13 16
e 13 17
e 13 18
e 13 21
e 13 22
e 13 24
e 13 25
e 13 28
e 13 29
e 13 32
e 13 35
e 14 21
e 14 22
e 14 26
e 14 27
e 14 29
e 14 31
e 14 33
e 14 34
e 14 37
e 14 38
e 14 39
e 15 16
e 15 19
e 15 20
e 15 23
e 15 27
e 15 28
e 15 31
e 15 32
e 15 33
e 15 37
e 15 40
e 16 17
e 16 21
e 16 23
e 16 24
e 16 28
e 16 29
e 16 30
e 16 32
e 16 33
e 16 36
e 16 40
e 17 18
e 17 21
e 17 23
e 17 24
e 17 27
e 17 28
e 17 30
e 17 32
e 17 33
e 17 34
e 17 38
e 17 40
e 18 23
e 18 24
e 18 25
e 18 28
e 18 33
e 18 36
e 18 40
e 19 20
e 19 21
e 19 24
e 19 26
e 19 27
e 19 28
e 19 30
e 19 32
e 19 35
e 19 36
e 19 38
e 20 21
e 20 22
e 20 28
e 20 30
e 20 32
e 20 33
e 20 34
e 20 39
e 21 22
e 21 23
e 21 24
e 21 25
e 21 29
e 21 30
e 21 31
e 21 32
e 21 35
e 21 36
e 22 23
e 22 26
e 22 29
e 22 30
e 22 31
e 22 32
e 22 33
e 22 38
e 22 39
e 22 40
e 23 26
e 23 27
e 23 29
e 23 30
e 23 31
e 23 32
e 23 35
e 23 36
e 23 38
e 24 25
e 24 29
e 24 32
e 24 33
e 24 34
e 24 35
e 24 36
e 24 40
e 25 26
e 25 30
e 25 31
e 25 32
e 25 39
e 26 27
e 26 28
e 26 30
e 26 32
e 26 34
e 26 35
e 26 36
e 26 37
e 26 38
e 27 28
e 27 29
e 27 30
e 27 31
e 27 32
e 27 33
e 27 34
e 27 35
e 27 36
e 27 39
e 27 40
e 28 29
e 28 30
e 28 32
e 28 35
e 28 37
e 28 40
e 29 31
e 29 33
e 29 34
e 29 35
e 29 40
e 30 31
e 30 32
e 30 34
e 30 35
e 30 36
e 30 37
e 30 38
e 30 39
e 30 40
e 31 33
e 31 35
e 31 38
e 31 39
e 31 40
e 32 36
e 32 39
e 33 34
e 33 35
e 33 36
e 33 37
e 33 38
e 33 40
e 34 35
e 34 38
e 35 37
e 35 38
e 37 38
e 38 40
